NAME: random-7-31473
TYPE: TSP
COMMENT: size=7 seed=31473
DIMENSION: 16
EDGE_WEIGHT_TYPE: EUC_2D
NODE_COORD_SECTION
+0 711 844
-0 711 844
+1 641 179
-1 752 139
+2 366 558
-2 477 536
+3 372 930
-3 597 782
+4 90 243
-4 971 835
+5 386 679
-5 565 160
+6 623 461
-6 409 234
+7 444 459
-7 331 462
PRECEDENCE_SECTION
+0 -0
+1 -1
+2 -2
+3 -3
+4 -4
+5 -5
+6 -6
+7 -7
EOF
